c uprop, v00.0, 
c reading from data/prog164.c.cnf
c done reading: 0.00445
p cnf 138 625
-49 -69 0
49 69 0
-61 -63 0
61 63 0
-54 -59 0
54 59 0
-52 -67 0
52 67 0
-47 -57 0
47 57 0
-42 -45 0
42 45 0
65 -69 0
-65 69 0
-65 69 -72 0
-65 -72 0
65 -69 72 0
65 72 0
-63 -69 73 0
-63 -65 73 0
-65 -69 73 0
63 69 -73 0
63 65 -73 0
65 69 -73 0
63 -73 -74 0
69 -73 -74 0
65 -73 -74 0
-63 73 74 0
-69 73 74 0
-65 73 74 0
-63 -65 -69 74 0
63 65 69 -74 0
-59 -63 75 0
-59 -73 75 0
-63 -73 75 0
59 63 -75 0
59 73 -75 0
63 73 -75 0
59 -75 -76 0
63 -75 -76 0
73 -75 -76 0
-59 75 76 0
-63 75 76 0
-73 75 76 0
-59 -63 -73 76 0
59 63 73 -76 0
-52 -59 77 0
-52 -75 77 0
-59 -75 77 0
52 59 -77 0
52 75 -77 0
59 75 -77 0
52 -77 -78 0
59 -77 -78 0
75 -77 -78 0
-52 77 78 0
-59 77 78 0
-75 77 78 0
-52 -59 -75 78 0
52 59 75 -78 0
-47 -52 79 0
-47 -77 79 0
-52 -77 79 0
47 52 -79 0
47 77 -79 0
52 77 -79 0
47 -79 -80 0
52 -79 -80 0
77 -79 -80 0
-47 79 80 0
-52 79 80 0
-77 79 80 0
-47 -52 -77 80 0
47 52 77 -80 0
-42 -47 81 0
-42 -79 81 0
-47 -79 81 0
42 47 -81 0
42 79 -81 0
47 79 -81 0
42 -81 -82 0
47 -81 -82 0
79 -81 -82 0
-42 81 82 0
-47 81 82 0
-79 81 82 0
-42 -47 -79 82 0
42 47 79 -82 0
42 -71 0
-71 81 0
-42 71 -81 0
-42 -68 -81 0
42 -68 81 0
-42 68 81 0
42 68 -81 0
-58 74 0
58 -74 0
51 -76 0
-51 76 0
-46 -51 76 0
-46 -51 0
46 51 -76 0
46 51 0
41 -69 -78 0
41 -51 -78 0
41 -51 -69 0
-41 69 78 0
-41 51 78 0
-41 51 69 0
-40 -41 78 0
-40 -41 69 0
-40 -41 51 0
40 41 -78 0
40 41 -69 0
40 41 -51 0
40 -51 -69 -78 0
-40 51 69 78 0
37 -63 -80 0
37 -41 -80 0
37 -41 -63 0
-37 63 80 0
-37 41 80 0
-37 41 63 0
-34 -37 80 0
-34 -37 63 0
-34 -37 41 0
34 37 -80 0
34 37 -63 0
34 37 -41 0
34 -41 -63 -80 0
-34 41 63 80 0
31 -59 -82 0
31 -37 -82 0
31 -37 -59 0
-31 59 82 0
-31 37 82 0
-31 37 59 0
-30 -31 82 0
-30 -31 59 0
-30 -31 37 0
30 31 -82 0
30 31 -59 0
30 31 -37 0
30 -37 -59 -82 0
-30 37 59 82 0
29 -52 -68 0
29 -31 -68 0
29 -31 -52 0
-29 52 68 0
-29 31 68 0
-29 31 52 0
-28 -29 68 0
-28 -29 52 0
-28 -29 31 0
28 29 -68 0
28 29 -52 0
28 29 -31 0
28 -31 -52 -68 0
-28 31 52 68 0
27 -47 -71 0
27 -29 -71 0
27 -29 -47 0
-27 47 71 0
-27 29 71 0
-27 29 47 0
-26 -27 71 0
-26 -27 47 0
-26 -27 29 0
26 27 -71 0
26 27 -47 0
26 27 -29 0
26 -29 -47 -71 0
-26 29 47 71 0
-25 42 0
-25 27 0
25 -27 -42 0
-24 -27 -42 0
-24 27 42 0
24 27 -42 0
24 -27 42 0
-23 -72 0
23 72 0
-22 -58 0
22 58 0
-21 -46 0
21 46 0
-20 -40 0
20 40 0
-19 -34 0
19 34 0
-18 -30 0
18 30 0
-17 -28 0
17 28 0
-16 -26 0
16 26 0
-15 -24 0
15 24 0
-14 -25 0
14 25 0
-38 -66 0
-35 -66 0
35 38 66 0
-13 35 38 0
-13 -35 -38 0
13 35 -38 0
13 -35 38 0
-56 66 0
-32 -56 0
32 56 -66 0
-12 32 -66 0
-12 -32 66 0
12 32 66 0
12 -32 -66 0
-44 56 0
-44 -83 0
44 -56 83 0
-56 83 -85 0
56 -83 -85 0
56 83 85 0
-56 -83 85 0
44 -86 0
-86 -87 0
-44 86 87 0
-44 87 -89 0
44 -87 -89 0
44 87 89 0
-44 -87 89 0
86 -90 0
-90 -91 0
-86 90 91 0
-86 91 -93 0
86 -91 -93 0
86 91 93 0
-86 -91 93 0
90 -94 0
-94 -95 0
-90 94 95 0
-90 95 -97 0
90 -95 -97 0
90 95 97 0
-90 -95 97 0
94 -98 0
-98 -99 0
-94 98 99 0
-94 99 -101 0
94 -99 -101 0
94 99 101 0
-94 -99 101 0
32 -102 0
38 -102 0
-32 -38 102 0
-32 -38 -103 0
32 38 -103 0
-32 38 103 0
32 -38 103 0
-35 -83 104 0
-83 -102 104 0
-35 -102 104 0
35 83 -104 0
83 102 -104 0
35 102 -104 0
83 -104 -105 0
35 -104 -105 0
102 -104 -105 0
-83 104 105 0
-35 104 105 0
-102 104 105 0
-35 -83 -102 105 0
35 83 102 -105 0
-32 -87 106 0
-87 -104 106 0
-32 -104 106 0
32 87 -106 0
87 104 -106 0
32 104 -106 0
87 -106 -107 0
32 -106 -107 0
104 -106 -107 0
-87 106 107 0
-32 106 107 0
-104 106 107 0
-32 -87 -104 107 0
32 87 104 -107 0
-83 -91 108 0
-91 -106 108 0
-83 -106 108 0
83 91 -108 0
91 106 -108 0
83 106 -108 0
91 -108 -109 0
83 -108 -109 0
106 -108 -109 0
-91 108 109 0
-83 108 109 0
-106 108 109 0
-83 -91 -106 109 0
83 91 106 -109 0
-87 -95 110 0
-95 -108 110 0
-87 -108 110 0
87 95 -110 0
95 108 -110 0
87 108 -110 0
95 -110 -111 0
87 -110 -111 0
108 -110 -111 0
-95 110 111 0
-87 110 111 0
-108 110 111 0
-87 -95 -108 111 0
87 95 108 -111 0
-91 -99 112 0
-99 -110 112 0
-91 -110 112 0
91 99 -112 0
99 110 -112 0
91 110 -112 0
99 -112 -113 0
91 -112 -113 0
110 -112 -113 0
-99 112 113 0
-91 112 113 0
-110 112 113 0
-91 -99 -110 113 0
91 99 110 -113 0
95 -114 0
112 -114 0
-95 -112 114 0
-95 -112 -115 0
95 112 -115 0
-95 112 115 0
95 -112 115 0
99 -116 0
114 -116 0
-99 -114 116 0
-70 -99 -114 0
-70 99 114 0
70 -99 114 0
70 99 -114 0
-64 105 0
38 -64 0
-38 64 -105 0
-38 -60 -105 0
38 -60 105 0
38 60 -105 0
-38 60 105 0
-35 53 -107 0
53 -64 -107 0
-35 53 -64 0
35 -53 107 0
-53 64 107 0
35 -53 64 0
-48 -53 107 0
35 -48 -53 0
-48 -53 64 0
48 53 -107 0
-35 48 53 0
48 53 -64 0
-35 48 -64 -107 0
35 -48 64 107 0
-32 43 -109 0
43 -53 -109 0
-32 43 -53 0
32 -43 109 0
-43 53 109 0
32 -43 53 0
-39 -43 109 0
32 -39 -43 0
-39 -43 53 0
39 43 -109 0
-32 39 43 0
39 43 -53 0
-32 39 -53 -109 0
32 -39 53 109 0
36 -83 -111 0
36 -43 -111 0
36 -43 -83 0
-36 83 111 0
-36 43 111 0
-36 43 83 0
-33 -36 111 0
-33 -36 83 0
-33 -36 43 0
33 36 -111 0
33 36 -83 0
33 36 -43 0
33 -43 -83 -111 0
-33 43 83 111 0
84 -87 -113 0
-36 84 -113 0
-36 84 -87 0
-84 87 113 0
36 -84 113 0
36 -84 87 0
-84 -88 113 0
-84 87 -88 0
36 -84 -88 0
84 88 -113 0
84 -87 88 0
-36 84 88 0
-36 -87 88 -113 0
36 87 -88 113 0
-91 92 -115 0
-84 92 -115 0
-84 -91 92 0
91 -92 115 0
84 -92 115 0
84 91 -92 0
-92 -96 115 0
91 -92 -96 0
84 -92 -96 0
92 96 -115 0
-91 92 96 0
-84 92 96 0
-84 -91 96 -115 0
84 91 -96 115 0
-70 -95 100 0
-70 -92 100 0
-92 -95 100 0
70 95 -100 0
70 92 -100 0
92 95 -100 0
70 -100 -117 0
95 -100 -117 0
92 -100 -117 0
-70 100 117 0
-95 100 117 0
-92 100 117 0
-70 -92 -95 117 0
70 92 95 -117 0
-99 -116 118 0
-100 -116 118 0
-99 -100 118 0
99 116 -118 0
100 116 -118 0
99 100 -118 0
116 -118 -119 0
99 -118 -119 0
100 -118 -119 0
-116 118 119 0
-99 118 119 0
-100 118 119 0
-99 -100 -116 119 0
99 100 116 -119 0
-38 -120 0
-35 -120 0
35 38 120 0
35 38 -121 0
-35 -38 -121 0
35 -38 121 0
-35 38 121 0
120 -122 0
-103 -122 0
103 -120 122 0
103 -120 -123 0
-103 120 -123 0
103 120 123 0
-103 -120 123 0
122 -124 0
-60 -124 0
60 -122 124 0
60 -122 -125 0
-60 122 -125 0
60 122 125 0
-60 -122 125 0
124 -126 0
-48 -126 0
48 -124 126 0
48 -124 -127 0
-48 124 -127 0
48 124 127 0
-48 -124 127 0
126 -128 0
-39 -128 0
39 -126 128 0
39 -126 -129 0
-39 126 -129 0
39 126 129 0
-39 -126 129 0
128 -130 0
-33 -130 0
33 -128 130 0
33 -128 -131 0
-33 128 -131 0
33 128 131 0
-33 -128 131 0
130 -132 0
-88 -132 0
88 -130 132 0
88 -130 -133 0
-88 130 -133 0
88 130 133 0
-88 -130 133 0
132 -134 0
-96 -134 0
96 -132 134 0
96 -132 -135 0
-96 132 -135 0
96 132 135 0
-96 -132 135 0
-50 134 0
-50 -117 0
50 117 -134 0
117 -134 -136 0
-117 134 -136 0
117 134 136 0
-117 -134 136 0
50 -62 0
-62 -119 0
-50 62 119 0
-50 119 -137 0
50 -119 -137 0
50 119 137 0
-50 -119 137 0
-55 62 0
-55 -118 0
55 -62 118 0
-62 118 -138 0
62 -118 -138 0
62 118 138 0
-62 -118 138 0
-11 72 0
-11 38 0
11 -38 -72 0
-38 -72 0
38 72 0
10 -35 -58 0
10 -11 -58 0
10 -11 -35 0
-10 35 58 0
-10 11 58 0
-10 11 35 0
10 -58 0
10 -35 0
10 -11 0
-11 -35 -58 0
9 -46 -103 0
9 -10 -46 0
9 -10 -103 0
-9 46 103 0
-9 10 46 0
-9 10 103 0
-9 46 0
-9 103 0
-9 10 0
10 46 103 0
8 -40 -60 0
8 -9 -40 0
8 -9 -60 0
-8 40 60 0
-8 9 40 0
-8 9 60 0
8 -40 0
8 -60 0
8 -9 0
-9 -40 -60 0
7 -34 -48 0
7 -8 -34 0
7 -8 -48 0
-7 34 48 0
-7 8 34 0
-7 8 48 0
7 -34 0
7 -48 0
7 -8 0
-8 -34 -48 0
6 -30 -39 0
6 -7 -30 0
6 -7 -39 0
-6 30 39 0
-6 7 30 0
-6 7 39 0
6 -30 0
6 -39 0
6 -7 0
-7 -30 -39 0
5 -28 -33 0
5 -6 -28 0
5 -6 -33 0
-5 28 33 0
-5 6 28 0
-5 6 33 0
5 -28 0
5 -33 0
5 -6 0
-6 -28 -33 0
4 -26 -88 0
4 -5 -26 0
4 -5 -88 0
-4 26 88 0
-4 5 26 0
-4 5 88 0
4 -26 0
4 -88 0
4 -5 0
-5 -26 -88 0
3 -24 -96 0
3 -4 -24 0
3 -4 -96 0
-3 24 96 0
-3 4 24 0
-3 4 96 0
3 -24 0
3 -96 0
3 -4 0
-4 -24 -96 0
2 -25 -117 0
2 -3 -25 0
2 -3 -117 0
-2 25 117 0
-2 3 25 0
-2 3 117 0
2 -25 0
2 -117 0
2 -3 0
-3 -25 -117 0
-1 119 0
-1 2 0
1 -2 -119 0
2 -119 0
-2 119 0
-1 -118 0
1 -118 0
-1 118 0
